(set-logic QF_S)
(declare-fun var_0xINPUT_257791 () String)
(assert (and (= (len var_0xINPUT_257791) 0) (= (len var_0xINPUT_257791) 0) (not (= var_0xINPUT_257791 "Example:")) (not (= var_0xINPUT_257791 "6JX7G3VKFq"))))
(check-sat var_0xINPUT_257791)